param x :=
1 15483627.7584050
2 16453955.2570464
3 16715574.7203245
4 15010839.8760186
5 13098137.7195915
;

param y :=
1 3687531.60620285
2 3609614.61613039
3 5880533.27785464
4 7400657.58739250
5 7197049.11651869
;

param z := 
1 21034863.7666892
2 20298870.6659484
3 19540087.0450482
4 20388993.7241020
5 21735854.7999337
;

param t :=
1 0.0668215097784377
2 0.0668734837689279
3 0.0668089320366556
4 0.0667591864794910
5 0.0668297339738698
;

param c := 299792458;